25° run output:
{
    "Function": "kroB300.tsp",
    "Problem dimension": [
        17,
        170,
        53,
        297,
        141,
        35,
        16,
        209,
        250,
        103,
        270,
        219,
        232,
        87,
        215,
        294,
        8,
        286,
        77,
        129,
        71,
        78,
        201,
        92,
        246,
        113,
        137,
        97,
        237,
        21,
        138,
        23,
        105,
        176,
        151,
        61,
        34,
        62,
        182,
        158,
        156,
        96,
        241,
        202,
        290,
        30,
        226,
        216,
        235,
        74,
        281,
        251,
        9,
        223,
        3,
        152,
        289,
        2,
        10,
        212,
        32,
        56,
        279,
        13,
        282,
        214,
        94,
        85,
        59,
        252,
        84,
        188,
        200,
        238,
        162,
        207,
        165,
        76,
        203,
        119,
        99,
        180,
        31,
        249,
        7,
        46,
        175,
        39,
        269,
        278,
        299,
        6,
        169,
        157,
        132,
        163,
        54,
        93,
        292,
        285,
        196,
        111,
        205,
        298,
        98,
        67,
        51,
        80,
        133,
        29,
        271,
        283,
        28,
        58,
        295,
        284,
        142,
        266,
        172,
        135,
        102,
        82,
        130,
        280,
        115,
        177,
        184,
        268,
        275,
        40,
        192,
        134,
        124,
        291,
        5,
        127,
        274,
        183,
        168,
        65,
        195,
        18,
        43,
        47,
        12,
        164,
        1,
        153,
        220,
        221,
        55,
        204,
        38,
        68,
        52,
        189,
        128,
        90,
        33,
        20,
        116,
        112,
        210,
        147,
        150,
        277,
        41,
        22,
        148,
        48,
        179,
        121,
        79,
        27,
        206,
        257,
        75,
        110,
        218,
        122,
        126,
        72,
        114,
        262,
        83,
        288,
        240,
        64,
        42,
        191,
        131,
        25,
        229,
        208,
        227,
        253,
        243,
        224,
        4,
        69,
        45,
        256,
        66,
        267,
        109,
        217,
        144,
        140,
        258,
        230,
        139,
        190,
        167,
        197,
        36,
        73,
        104,
        159,
        242,
        263,
        86,
        101,
        264,
        154,
        161,
        143,
        49,
        254,
        233,
        100,
        19,
        0,
        44,
        95,
        120,
        149,
        24,
        174,
        198,
        225,
        57,
        117,
        265,
        50,
        125,
        88,
        234,
        26,
        145,
        107,
        70,
        37,
        185,
        273,
        244,
        247,
        166,
        293,
        173,
        272,
        146,
        91,
        296,
        160,
        276,
        261,
        228,
        15,
        155,
        118,
        178,
        239,
        199,
        194,
        193,
        248,
        236,
        136,
        213,
        60,
        245,
        186,
        81,
        222,
        287,
        106,
        187,
        123,
        259,
        89,
        211,
        231,
        181,
        63,
        14,
        255,
        11,
        171,
        108,
        260
    ],
    "Global Optimum": 0,
    "Algorithm": "Genetic algorithm",
    "Parameters": {
        "population": 30,
        "offspring": 30,
        "mutation probability": 0.0033333333333333335,
        "crossover probability": 0.9
    },
    "Fitness": 368528,
    "Solution": [
        17,
        170,
        53,
        297,
        141,
        35,
        16,
        209,
        250,
        103,
        270,
        219,
        232,
        87,
        215,
        294,
        8,
        286,
        77,
        129,
        71,
        78,
        201,
        92,
        246,
        113,
        137,
        97,
        237,
        21,
        138,
        23,
        105,
        176,
        151,
        61,
        34,
        62,
        182,
        158,
        156,
        96,
        241,
        202,
        290,
        30,
        226,
        216,
        235,
        74,
        281,
        251,
        9,
        223,
        3,
        152,
        289,
        2,
        10,
        212,
        32,
        56,
        279,
        13,
        282,
        214,
        94,
        85,
        59,
        252,
        84,
        188,
        200,
        238,
        162,
        207,
        165,
        76,
        203,
        119,
        99,
        180,
        31,
        249,
        7,
        46,
        175,
        39,
        269,
        278,
        299,
        6,
        169,
        157,
        132,
        163,
        54,
        93,
        292,
        285,
        196,
        111,
        205,
        298,
        98,
        67,
        51,
        80,
        133,
        29,
        271,
        283,
        28,
        58,
        295,
        284,
        142,
        266,
        172,
        135,
        102,
        82,
        130,
        280,
        115,
        177,
        184,
        268,
        275,
        40,
        192,
        134,
        124,
        291,
        5,
        127,
        274,
        183,
        168,
        65,
        195,
        18,
        43,
        47,
        12,
        164,
        1,
        153,
        220,
        221,
        55,
        204,
        38,
        68,
        52,
        189,
        128,
        90,
        33,
        20,
        116,
        112,
        210,
        147,
        150,
        277,
        41,
        22,
        148,
        48,
        179,
        121,
        79,
        27,
        206,
        257,
        75,
        110,
        218,
        122,
        126,
        72,
        114,
        262,
        83,
        288,
        240,
        64,
        42,
        191,
        131,
        25,
        229,
        208,
        227,
        253,
        243,
        224,
        4,
        69,
        45,
        256,
        66,
        267,
        109,
        217,
        144,
        140,
        258,
        230,
        139,
        190,
        167,
        197,
        36,
        73,
        104,
        159,
        242,
        263,
        86,
        101,
        264,
        154,
        161,
        143,
        49,
        254,
        233,
        100,
        19,
        0,
        44,
        95,
        120,
        149,
        24,
        174,
        198,
        225,
        57,
        117,
        265,
        50,
        125,
        88,
        234,
        26,
        145,
        107,
        70,
        37,
        185,
        273,
        244,
        247,
        166,
        293,
        173,
        272,
        146,
        91,
        296,
        160,
        276,
        261,
        228,
        15,
        155,
        118,
        178,
        239,
        199,
        194,
        193,
        248,
        236,
        136,
        213,
        60,
        245,
        186,
        81,
        222,
        287,
        106,
        187,
        123,
        259,
        89,
        211,
        231,
        181,
        63,
        14,
        255,
        11,
        171,
        108,
        260
    ],
    "Nb of functions evaluations": 50010,
    "Computational time in seconds": 144.23047590255737,
    "Stopping criterion in evaluations": 50000
}